69 1067
2 3 11 12 13 14 15 19 22 23 25 28 31 34 35 36 37 47 48 57 58 60 62 63 64 65 67
2 3 7 8 11 13 14 17 19 20 21 22 27 30 31 34 35 36 40 41 45 47 48 50 53 56 57 59 60 61 62 64 65 66
0 1 6 10 12 13 18 21 22 23 24 25 27 29 30 31 32 33 35 36 37 38 39 41 42 43 49 50 54 55 57 60 61 62 63 64 66 67
0 1 4 5 6 8 15 16 17 22 25 28 33 43 45 51 53 55 56 57 63 64 65 66 67 68
3 5 6 7 11 12 14 15 17 18 19 23 24 27 30 31 36 37 38 40 42 43 46 47 48 50 51 56 57 58 61 65 66
3 4 8 11 13 15 18 20 22 24 25 28 31 32 33 36 37 39 40 41 43 44 45 47 52 53 54 56 59 61 64 67
2 3 4 9 10 13 16 19 21 22 24 25 26 28 30 31 32 36 40 42 43 46 48 52 53 55 57 59 60 61 64 67
1 4 8 12 13 14 17 19 21 22 23 24 25 28 30 31 33 34 35 37 38 41 42 43 44 46 48 49 51 55 56 58 59 61 63 64 66 67 68
1 3 5 7 11 12 13 14 15 16 21 23 25 26 29 30 31 33 34 36 41 42 45 52 60 61 63 65 66 67
6 10 11 12 13 14 19 20 21 22 24 25 26 27 28 29 30 31 37 39 42 43 44 46 47 48 49 51 52 53 55 61 66 67
2 6 9 12 14 18 20 22 25 29 32 35 39 46 50 51 52 53 54 55 56 57 61 65 67
0 1 4 5 8 9 13 16 17 19 20 21 25 26 29 33 35 37 38 40 41 43 44 45 48 51 53 57 59 62 64 67 68
0 2 4 7 8 9 10 24 25 30 31 33 34 35 36 38 39 44 46 49 50 53 55 56 59 65 66 67
0 1 2 5 6 7 8 9 11 14 16 18 21 26 27 29 33 34 37 41 45 48 50 51 54 55 56 58 60 64 67 68
0 1 4 7 8 9 10 13 15 17 18 21 22 23 25 27 28 30 37 42 45 51 52 53 57 59 61 62 64 66 67 68
0 3 4 5 8 14 16 17 21 23 24 26 28 32 34 36 37 42 44 46 49 50 51 54 56 59 60 64 66 67
3 6 8 11 13 15 17 22 23 24 26 27 28 32 33 34 36 46 47 52 53 57 63 65 67
1 3 4 7 11 14 15 16 18 19 21 22 24 27 28 30 33 37 41 42 44 50 52 59 62 64 65 67 68
2 4 5 10 13 14 17 20 22 23 24 26 29 30 32 34 36 37 39 41 42 48 51 56 57 58 60 61 62 67
0 1 4 6 7 9 11 17 21 22 23 24 26 27 28 29 30 32 33 34 36 37 39 40 43 46 49 52 53 55 56 57 58 60 62 64 66
1 5 9 10 11 18 22 25 30 31 36 39 40 41 42 44 45 46 47 51 60 63 64 68
1 2 6 7 8 9 11 13 14 15 17 19 23 24 25 26 27 28 29 31 32 33 34 35 44 45 46 47 48 49 54 55 57 58 62 64 65 66 67 68
0 1 2 3 5 6 7 9 10 14 16 17 18 19 20 24 26 29 33 34 35 39 40 43 45 46 48 52 54 56 57 59 62 66 67
0 2 4 7 8 14 15 16 18 19 21 25 30 33 35 37 38 42 45 47 50 51 52 53 54 56 57 58 59 61 62 63 65
2 4 5 6 7 9 12 15 16 17 18 19 21 22 25 26 27 28 33 34 36 42 44 45 49 50 52 53 54 55 56 59 60 61 62 64 65
0 2 3 5 6 7 8 9 10 11 12 14 20 21 23 24 28 29 32 38 45 47 49 50 53 56 60 62 63 64 65 67 68
6 8 9 11 13 15 16 18 19 21 22 24 28 29 31 32 33 34 35 39 40 44 47 49 50 51 52 58 59 62 64 66 67
1 2 4 9 13 14 16 17 19 21 24 28 31 32 33 34 43 46 49 51 55 56 57 59 60 61 63 65 66 67 68
0 3 5 6 7 9 14 15 16 17 19 21 24 25 26 27 29 30 33 36 43 46 50 52 54 58 61 64 65 66
2 8 9 10 11 13 18 19 21 22 25 26 28 33 34 35 41 42 44 46 48 52 55 58 60 62 67
1 2 4 6 7 8 9 12 14 17 18 19 20 23 28 34 38 40 45 47 52 53 59 61 65
0 1 2 4 5 6 7 8 9 12 20 21 26 27 32 39 41 42 45 48 50 51 55 57 58 59 60 64 65 68
2 5 6 10 15 16 18 19 21 25 26 27 31 34 35 36 41 47 52 54 56 58 63 65 67 68
2 3 5 7 8 11 12 13 16 17 19 21 22 23 24 26 27 28 29 38 41 43 44 48 51 53 54 61 65
0 1 7 8 12 13 15 16 18 19 21 22 24 26 27 29 30 32 42 43 45 46 47 50 52 53 56 57 58 59 64 65 66 68
0 1 2 7 10 11 12 21 22 23 26 29 32 39 41 42 44 46 52 55 56 58 62 63 65 66 67 68
0 1 2 4 5 6 8 12 15 16 18 19 20 24 28 32 37 40 42 43 44 49 50 53 54 56 59 68
0 2 4 5 7 9 11 13 14 15 17 18 19 23 36 39 44 48 51 53 58 59 60 61 64 65 67
2 4 7 11 12 23 25 30 33 39 40 42 43 45 46 47 48 53 54 56 60 63 65 66 68
2 5 9 10 12 18 19 20 22 26 31 35 37 38 46 47 51 52 53 54 58 60 63
1 4 5 6 11 19 20 22 26 30 36 38 42 43 46 47 49 50 56 57 58 64 65
1 2 5 7 8 11 13 17 18 20 29 31 32 33 35 42 45 47 48 50 51 54 55 59 60 61 62 64 68
2 4 6 7 8 9 14 15 17 18 20 23 24 29 31 34 35 36 38 40 41 43 46 48 51 52 53 54 56 57 60 61 62 63 65 68
2 3 4 5 6 7 9 11 19 22 27 28 33 34 36 38 40 42 44 47 48 55 58 59 61 62 64 65 66 67
5 7 9 11 12 15 17 20 21 24 26 29 33 35 36 37 43 46 47 50 51 55 60 61 66 67
1 3 5 8 11 13 14 20 21 22 23 24 25 30 31 34 38 41 46 49 52 53 54 55 57 58 59 60 61 63 64 65 67
4 6 7 9 10 12 15 16 19 20 21 22 27 28 29 34 35 38 39 40 42 44 45 47 53 56 58 59 61 62 63 65 67 68
0 1 4 5 9 16 20 21 23 25 26 30 32 34 38 39 40 41 43 44 46 49 51 53 54 55 56 57 59 64 65 67 68
0 1 4 6 7 9 11 13 18 21 22 29 31 33 37 38 41 42 43 49 56 60 61 63 64 65
2 7 9 12 15 19 21 24 25 26 27 36 40 45 47 48 56 57 60 62 63
1 2 4 10 12 13 15 17 23 24 25 26 28 31 34 36 40 41 44 52 54 56 59 60 61 62 63 64 67
3 4 7 9 10 11 13 14 15 18 20 23 26 27 31 33 37 39 41 42 44 47 57 58 59 65 66 67
5 6 8 9 10 14 16 17 19 22 23 24 26 28 29 30 32 34 35 39 42 45 50 53 58 59 61 63 66 67
1 3 5 6 9 10 11 12 14 16 19 23 24 25 30 33 34 36 37 38 39 42 45 46 47 52 54 55 57 60 61 63 65 66 68
2 5 10 13 15 21 22 23 24 28 32 33 36 38 39 41 42 45 47 50 53 56 57 58 62 63
2 3 6 7 9 10 12 13 19 21 24 27 29 31 35 41 43 44 45 47 53 58 64 66 67
1 3 4 5 7 10 12 13 15 18 19 22 23 24 25 27 32 34 35 36 38 40 42 46 47 48 49 50 54 61 63 64 65 66 67 68
0 1 2 3 4 6 10 11 14 16 18 19 21 22 23 27 31 34 40 42 45 47 49 51 53 54 58 59 60 62 63 66 67 68
0 4 7 13 18 19 21 23 26 28 29 31 32 34 35 37 39 40 43 45 46 51 52 54 55 57 59 60 61 68
1 5 6 7 11 12 14 15 17 22 23 24 26 27 30 31 34 36 37 41 43 45 46 47 50 51 52 57 58 60 61 64 65 66
0 1 2 6 8 13 15 18 19 20 24 25 27 29 31 37 38 39 41 42 44 45 48 49 50 53 57 58 59 61 64 68
1 2 4 5 6 7 8 9 10 14 18 23 24 27 28 30 33 37 41 42 43 44 45 46 48 50 52 53 56 58 59 60 63 64 65 68
0 1 2 11 14 17 18 19 21 22 23 24 25 26 29 35 41 42 43 46 49 50 54 57 63 64 67 68
0 2 3 7 8 16 20 23 25 27 32 35 38 39 42 45 46 48 49 50 52 53 54 56 57 61 62 64 65 66 68
0 1 2 3 5 6 7 11 13 14 15 17 19 20 21 24 25 26 28 31 34 37 40 41 43 45 47 48 50 55 56 59 60 61 62 63 65 67 68
0 1 3 4 8 10 12 16 17 21 23 24 25 27 28 30 31 32 33 34 35 37 38 40 42 43 45 46 47 48 51 53 56 59 61 63 64 66 67 68
1 2 3 4 7 8 9 12 14 15 19 21 22 26 27 28 34 35 38 43 44 51 52 53 55 56 57 59 63 65 67 68
0 2 3 5 6 7 8 9 10 11 12 13 14 15 16 17 18 21 22 25 26 27 29 32 35 37 43 44 45 46 47 50 51 52 55 56 57 62 64 65 66 68
3 7 11 13 14 17 20 21 25 27 31 32 34 35 36 38 41 42 46 47 53 56 57 58 60 61 62 63 64 65 66 67
